NAME 
OBJSENSE MAX
ROWS
 N  OBJ
 L  packing[0]
 L  packing[1]
 L  packing[2]
 L  packing[3]
 L  packing[4]
 L  packing[5]
 L  packing[6]
 L  packing[7]
 L  packing[8]
 L  packing[9]
 L  packing[10]
 L  packing[11]
 L  packing[12]
 L  packing[13]
 L  packing[14]
 L  packing[15]
 L  packing[16]
 L  packing[17]
 L  packing[18]
 L  packing[19]
 L  packing[20]
 L  packing[21]
 L  packing[22]
 L  packing[23]
 L  packing[24]
 L  packing[25]
 L  packing[26]
 L  packing[27]
 L  packing[28]
 L  packing[29]
 L  packing[30]
 L  packing[31]
 L  packing[32]
 L  packing[33]
 L  packing[34]
 L  packing[35]
 L  packing[36]
 L  packing[37]
 L  packing[38]
 L  packing[39]
 L  packing[40]
 L  packing[41]
 L  packing[42]
 L  packing[43]
 L  packing[44]
 L  packing[45]
 L  packing[46]
 L  packing[47]
 L  packing[48]
 L  packing[49]
 L  R51     
COLUMNS
    MARKER    'MARKER'                 'INTORG'
    x[1]      OBJ       46
    x[1]      packing[0]  190
    x[1]      packing[2]  135
    x[1]      packing[7]  58
    x[1]      packing[9]  145
    x[1]      packing[10]  165
    x[1]      packing[12]  195
    x[1]      packing[14]  28
    x[1]      packing[15]  184
    x[1]      packing[16]  69
    x[1]      packing[17]  91
    x[1]      packing[19]  138
    x[1]      packing[20]  136
    x[1]      packing[22]  151
    x[1]      packing[23]  31
    x[1]      packing[26]  131
    x[1]      packing[27]  178
    x[1]      packing[28]  56
    x[1]      packing[29]  106
    x[1]      packing[32]  110
    x[1]      packing[33]  186
    x[1]      packing[34]  135
    x[1]      packing[35]  18
    x[1]      packing[37]  199
    x[1]      packing[38]  48
    x[1]      packing[39]  36
    x[1]      packing[40]  14
    x[1]      packing[41]  194
    x[1]      packing[42]  89
    x[1]      packing[43]  101
    x[1]      packing[44]  155
    x[1]      packing[45]  124
    x[1]      packing[47]  110
    x[1]      packing[48]  118
    x[1]      packing[49]  27
    x[2]      OBJ       151
    x[2]      packing[1]  165
    x[2]      packing[2]  77
    x[2]      packing[3]  16
    x[2]      packing[4]  87
    x[2]      packing[5]  104
    x[2]      packing[6]  157
    x[2]      packing[7]  80
    x[2]      packing[10]  133
    x[2]      packing[12]  117
    x[2]      packing[13]  16
    x[2]      packing[15]  67
    x[2]      packing[16]  184
    x[2]      packing[17]  130
    x[2]      packing[18]  141
    x[2]      packing[19]  137
    x[2]      packing[21]  172
    x[2]      packing[22]  48
    x[2]      packing[23]  138
    x[2]      packing[24]  20
    x[2]      packing[25]  135
    x[2]      packing[28]  187
    x[2]      packing[29]  113
    x[2]      packing[31]  151
    x[2]      packing[32]  23
    x[2]      packing[33]  33
    x[2]      packing[34]  162
    x[2]      packing[35]  185
    x[2]      packing[36]  134
    x[2]      packing[38]  91
    x[2]      packing[39]  110
    x[2]      packing[40]  196
    x[2]      packing[41]  64
    x[2]      packing[42]  137
    x[2]      packing[43]  199
    x[2]      packing[45]  180
    x[2]      packing[46]  60
    x[2]      packing[47]  46
    x[2]      packing[49]  193
    x[3]      OBJ       86
    x[3]      packing[0]  117
    x[3]      packing[1]  44
    x[3]      packing[2]  90
    x[3]      packing[4]  107
    x[3]      packing[5]  195
    x[3]      packing[6]  168
    x[3]      packing[7]  94
    x[3]      packing[8]  139
    x[3]      packing[11]  180
    x[3]      packing[13]  38
    x[3]      packing[14]  2
    x[3]      packing[15]  64
    x[3]      packing[18]  161
    x[3]      packing[20]  169
    x[3]      packing[22]  25
    x[3]      packing[24]  2
    x[3]      packing[26]  102
    x[3]      packing[27]  58
    x[3]      packing[29]  51
    x[3]      packing[30]  74
    x[3]      packing[31]  87
    x[3]      packing[33]  84
    x[3]      packing[35]  45
    x[3]      packing[38]  118
    x[3]      packing[39]  116
    x[3]      packing[40]  160
    x[3]      packing[41]  106
    x[3]      packing[42]  99
    x[3]      packing[43]  1
    x[3]      packing[44]  42
    x[3]      packing[45]  46
    x[3]      packing[46]  160
    x[3]      packing[48]  192
    x[3]      packing[49]  170
    x[4]      OBJ       92
    x[4]      packing[0]  120
    x[4]      packing[1]  144
    x[4]      packing[2]  21
    x[4]      packing[4]  158
    x[4]      packing[5]  45
    x[4]      packing[7]  127
    x[4]      packing[8]  173
    x[4]      packing[9]  141
    x[4]      packing[10]  181
    x[4]      packing[11]  177
    x[4]      packing[12]  94
    x[4]      packing[13]  84
    x[4]      packing[15]  106
    x[4]      packing[16]  118
    x[4]      packing[17]  37
    x[4]      packing[18]  122
    x[4]      packing[19]  14
    x[4]      packing[20]  75
    x[4]      packing[21]  137
    x[4]      packing[22]  136
    x[4]      packing[24]  193
    x[4]      packing[25]  159
    x[4]      packing[26]  25
    x[4]      packing[27]  111
    x[4]      packing[28]  101
    x[4]      packing[30]  2
    x[4]      packing[32]  173
    x[4]      packing[33]  53
    x[4]      packing[34]  105
    x[4]      packing[35]  182
    x[4]      packing[36]  18
    x[4]      packing[37]  112
    x[4]      packing[38]  192
    x[4]      packing[39]  110
    x[4]      packing[40]  134
    x[4]      packing[41]  9
    x[4]      packing[43]  196
    x[4]      packing[44]  80
    x[4]      packing[45]  185
    x[4]      packing[47]  105
    x[4]      packing[48]  194
    x[4]      packing[49]  50
    x[5]      OBJ       39
    x[5]      packing[0]  74
    x[5]      packing[1]  127
    x[5]      packing[2]  24
    x[5]      packing[3]  101
    x[5]      packing[4]  10
    x[5]      packing[6]  41
    x[5]      packing[7]  31
    x[5]      packing[8]  91
    x[5]      packing[10]  111
    x[5]      packing[11]  124
    x[5]      packing[12]  45
    x[5]      packing[14]  162
    x[5]      packing[16]  79
    x[5]      packing[17]  107
    x[5]      packing[19]  74
    x[5]      packing[22]  32
    x[5]      packing[23]  104
    x[5]      packing[25]  11
    x[5]      packing[27]  77
    x[5]      packing[28]  171
    x[5]      packing[30]  30
    x[5]      packing[31]  9
    x[5]      packing[33]  187
    x[5]      packing[34]  61
    x[5]      packing[37]  75
    x[5]      packing[38]  121
    x[5]      packing[39]  151
    x[5]      packing[41]  18
    x[5]      packing[42]  129
    x[5]      packing[43]  157
    x[5]      packing[44]  55
    x[5]      packing[45]  182
    x[5]      packing[47]  175
    x[5]      packing[48]  56
    x[5]      packing[49]  91
    x[6]      OBJ       157
    x[6]      packing[2]  102
    x[6]      packing[3]  127
    x[6]      packing[4]  95
    x[6]      packing[5]  51
    x[6]      packing[9]  89
    x[6]      packing[10]  186
    x[6]      packing[11]  18
    x[6]      packing[12]  61
    x[6]      packing[13]  140
    x[6]      packing[15]  128
    x[6]      packing[16]  146
    x[6]      packing[17]  86
    x[6]      packing[18]  71
    x[6]      packing[19]  162
    x[6]      packing[20]  46
    x[6]      packing[21]  119
    x[6]      packing[23]  56
    x[6]      packing[24]  3
    x[6]      packing[25]  75
    x[6]      packing[26]  117
    x[6]      packing[28]  152
    x[6]      packing[29]  96
    x[6]      packing[31]  1
    x[6]      packing[32]  102
    x[6]      packing[33]  140
    x[6]      packing[34]  124
    x[6]      packing[35]  1
    x[6]      packing[36]  15
    x[6]      packing[37]  75
    x[6]      packing[38]  80
    x[6]      packing[39]  86
    x[6]      packing[40]  74
    x[6]      packing[41]  62
    x[6]      packing[42]  30
    x[6]      packing[43]  156
    x[6]      packing[44]  156
    x[6]      packing[47]  4
    x[6]      packing[48]  83
    x[6]      packing[49]  28
    x[6]      R51       1
    x[7]      OBJ       188
    x[7]      packing[1]  109
    x[7]      packing[2]  17
    x[7]      packing[3]  141
    x[7]      packing[5]  157
    x[7]      packing[6]  174
    x[7]      packing[7]  52
    x[7]      packing[8]  70
    x[7]      packing[10]  130
    x[7]      packing[11]  32
    x[7]      packing[12]  118
    x[7]      packing[13]  99
    x[7]      packing[15]  112
    x[7]      packing[16]  19
    x[7]      packing[17]  12
    x[7]      packing[18]  104
    x[7]      packing[19]  129
    x[7]      packing[20]  77
    x[7]      packing[21]  150
    x[7]      packing[22]  195
    x[7]      packing[23]  67
    x[7]      packing[25]  191
    x[7]      packing[27]  24
    x[7]      packing[28]  179
    x[7]      packing[29]  113
    x[7]      packing[30]  98
    x[7]      packing[31]  190
    x[7]      packing[32]  75
    x[7]      packing[34]  74
    x[7]      packing[35]  199
    x[7]      packing[36]  88
    x[7]      packing[39]  185
    x[7]      packing[40]  143
    x[7]      packing[41]  110
    x[7]      packing[42]  131
    x[7]      packing[43]  129
    x[7]      packing[44]  139
    x[7]      packing[45]  52
    x[7]      packing[46]  60
    x[7]      packing[49]  148
    x[7]      R51       1
    x[8]      OBJ       120
    x[8]      packing[0]  28
    x[8]      packing[2]  44
    x[8]      packing[3]  167
    x[8]      packing[4]  61
    x[8]      packing[5]  124
    x[8]      packing[8]  39
    x[8]      packing[10]  151
    x[8]      packing[12]  123
    x[8]      packing[13]  47
    x[8]      packing[14]  70
    x[8]      packing[15]  154
    x[8]      packing[16]  173
    x[8]      packing[17]  113
    x[8]      packing[18]  100
    x[8]      packing[19]  130
    x[8]      packing[20]  163
    x[8]      packing[21]  12
    x[8]      packing[22]  181
    x[8]      packing[23]  47
    x[8]      packing[24]  50
    x[8]      packing[26]  20
    x[8]      packing[27]  199
    x[8]      packing[29]  106
    x[8]      packing[30]  118
    x[8]      packing[31]  125
    x[8]      packing[32]  62
    x[8]      packing[33]  63
    x[8]      packing[34]  165
    x[8]      packing[35]  165
    x[8]      packing[36]  189
    x[8]      packing[37]  128
    x[8]      packing[38]  114
    x[8]      packing[39]  198
    x[8]      packing[40]  16
    x[8]      packing[41]  195
    x[8]      packing[42]  75
    x[8]      packing[43]  64
    x[8]      packing[44]  146
    x[8]      packing[45]  27
    x[8]      packing[46]  5
    x[8]      packing[47]  61
    x[8]      packing[48]  97
    x[8]      R51       1
    x[9]      OBJ       83
    x[9]      packing[0]  97
    x[9]      packing[4]  15
    x[9]      packing[5]  165
    x[9]      packing[6]  154
    x[9]      packing[8]  104
    x[9]      packing[9]  197
    x[9]      packing[10]  97
    x[9]      packing[12]  159
    x[9]      packing[13]  6
    x[9]      packing[14]  43
    x[9]      packing[15]  92
    x[9]      packing[16]  47
    x[9]      packing[17]  40
    x[9]      packing[18]  140
    x[9]      packing[19]  116
    x[9]      packing[21]  5
    x[9]      packing[25]  39
    x[9]      packing[27]  91
    x[9]      packing[28]  36
    x[9]      packing[29]  51
    x[9]      packing[31]  26
    x[9]      packing[32]  124
    x[9]      packing[33]  22
    x[9]      packing[34]  181
    x[9]      packing[35]  123
    x[9]      packing[37]  197
    x[9]      packing[38]  16
    x[9]      packing[39]  105
    x[9]      packing[40]  154
    x[9]      packing[41]  173
    x[9]      packing[42]  138
    x[9]      packing[43]  123
    x[9]      packing[44]  38
    x[9]      packing[45]  99
    x[9]      packing[46]  184
    x[9]      packing[48]  127
    x[9]      packing[49]  67
    x[10]     OBJ       21
    x[10]     packing[1]  99
    x[10]     packing[2]  183
    x[10]     packing[3]  19
    x[10]     packing[4]  111
    x[10]     packing[5]  166
    x[10]     packing[6]  108
    x[10]     packing[7]  118
    x[10]     packing[8]  133
    x[10]     packing[11]  91
    x[10]     packing[12]  41
    x[10]     packing[13]  104
    x[10]     packing[14]  113
    x[10]     packing[16]  103
    x[10]     packing[17]  90
    x[10]     packing[18]  183
    x[10]     packing[19]  132
    x[10]     packing[20]  151
    x[10]     packing[22]  25
    x[10]     packing[23]  169
    x[10]     packing[25]  175
    x[10]     packing[26]  42
    x[10]     packing[27]  103
    x[10]     packing[29]  88
    x[10]     packing[30]  199
    x[10]     packing[31]  83
    x[10]     packing[32]  120
    x[10]     packing[33]  161
    x[10]     packing[34]  195
    x[10]     packing[35]  69
    x[10]     packing[36]  96
    x[10]     packing[37]  161
    x[10]     packing[40]  24
    x[10]     packing[41]  104
    x[10]     packing[42]  128
    x[10]     packing[43]  166
    x[10]     packing[44]  21
    x[10]     packing[45]  66
    x[10]     packing[46]  77
    x[10]     packing[49]  7
    x[11]     OBJ       96
    x[11]     packing[1]  154
    x[11]     packing[2]  166
    x[11]     packing[3]  96
    x[11]     packing[4]  101
    x[11]     packing[5]  97
    x[11]     packing[6]  120
    x[11]     packing[7]  123
    x[11]     packing[9]  68
    x[11]     packing[10]  128
    x[11]     packing[12]  35
    x[11]     packing[14]  47
    x[11]     packing[15]  170
    x[11]     packing[17]  112
    x[11]     packing[19]  139
    x[11]     packing[20]  149
    x[11]     packing[21]  198
    x[11]     packing[23]  115
    x[11]     packing[24]  135
    x[11]     packing[27]  162
    x[11]     packing[28]  150
    x[11]     packing[29]  132
    x[11]     packing[30]  84
    x[11]     packing[31]  105
    x[11]     packing[33]  62
    x[11]     packing[34]  26
    x[11]     packing[35]  114
    x[11]     packing[36]  52
    x[11]     packing[37]  8
    x[11]     packing[38]  183
    x[11]     packing[39]  147
    x[11]     packing[40]  6
    x[11]     packing[41]  9
    x[11]     packing[42]  107
    x[11]     packing[44]  39
    x[11]     packing[45]  182
    x[11]     packing[47]  36
    x[11]     packing[49]  191
    x[12]     OBJ       68
    x[12]     packing[0]  179
    x[12]     packing[3]  108
    x[12]     packing[5]  124
    x[12]     packing[6]  189
    x[12]     packing[7]  92
    x[12]     packing[8]  68
    x[12]     packing[9]  199
    x[12]     packing[11]  53
    x[12]     packing[12]  8
    x[12]     packing[13]  163
    x[12]     packing[14]  142
    x[12]     packing[15]  73
    x[12]     packing[16]  169
    x[12]     packing[17]  63
    x[12]     packing[18]  67
    x[12]     packing[19]  128
    x[12]     packing[20]  75
    x[12]     packing[21]  83
    x[12]     packing[22]  138
    x[12]     packing[23]  145
    x[12]     packing[25]  24
    x[12]     packing[26]  83
    x[12]     packing[27]  152
    x[12]     packing[28]  94
    x[12]     packing[29]  101
    x[12]     packing[30]  83
    x[12]     packing[31]  36
    x[12]     packing[32]  1
    x[12]     packing[33]  22
    x[12]     packing[34]  84
    x[12]     packing[36]  30
    x[12]     packing[37]  67
    x[12]     packing[39]  88
    x[12]     packing[41]  73
    x[12]     packing[42]  87
    x[12]     packing[44]  175
    x[12]     packing[45]  96
    x[12]     packing[46]  109
    x[12]     packing[48]  131
    x[12]     packing[49]  189
    x[13]     OBJ       4
    x[13]     packing[0]  89
    x[13]     packing[1]  73
    x[13]     packing[3]  107
    x[13]     packing[4]  146
    x[13]     packing[5]  151
    x[13]     packing[7]  107
    x[13]     packing[9]  25
    x[13]     packing[10]  137
    x[13]     packing[11]  129
    x[13]     packing[13]  66
    x[13]     packing[14]  126
    x[13]     packing[15]  19
    x[13]     packing[16]  141
    x[13]     packing[17]  63
    x[13]     packing[20]  199
    x[13]     packing[21]  16
    x[13]     packing[22]  187
    x[13]     packing[23]  27
    x[13]     packing[24]  82
    x[13]     packing[25]  37
    x[13]     packing[26]  112
    x[13]     packing[27]  170
    x[13]     packing[29]  84
    x[13]     packing[31]  116
    x[13]     packing[33]  55
    x[13]     packing[34]  90
    x[13]     packing[35]  189
    x[13]     packing[36]  67
    x[13]     packing[38]  110
    x[13]     packing[39]  74
    x[13]     packing[40]  182
    x[13]     packing[41]  164
    x[13]     packing[42]  187
    x[13]     packing[43]  47
    x[13]     packing[44]  182
    x[13]     packing[45]  38
    x[13]     packing[47]  8
    x[13]     packing[49]  163
    x[14]     OBJ       133
    x[14]     packing[0]  73
    x[14]     packing[1]  99
    x[14]     packing[3]  163
    x[14]     packing[5]  193
    x[14]     packing[6]  172
    x[14]     packing[7]  13
    x[14]     packing[8]  98
    x[14]     packing[9]  50
    x[14]     packing[10]  199
    x[14]     packing[11]  48
    x[14]     packing[12]  69
    x[14]     packing[14]  21
    x[14]     packing[15]  14
    x[14]     packing[16]  4
    x[14]     packing[17]  182
    x[14]     packing[18]  73
    x[14]     packing[20]  103
    x[14]     packing[21]  122
    x[14]     packing[22]  186
    x[14]     packing[23]  108
    x[14]     packing[24]  162
    x[14]     packing[25]  85
    x[14]     packing[26]  94
    x[14]     packing[27]  123
    x[14]     packing[28]  179
    x[14]     packing[31]  61
    x[14]     packing[32]  52
    x[14]     packing[33]  72
    x[14]     packing[34]  84
    x[14]     packing[35]  93
    x[14]     packing[36]  47
    x[14]     packing[37]  31
    x[14]     packing[39]  56
    x[14]     packing[40]  158
    x[14]     packing[42]  89
    x[14]     packing[43]  72
    x[14]     packing[46]  29
    x[14]     packing[48]  48
    x[14]     packing[49]  136
    x[14]     R51       1
    x[15]     OBJ       89
    x[15]     packing[0]  107
    x[15]     packing[4]  162
    x[15]     packing[5]  60
    x[15]     packing[6]  104
    x[15]     packing[7]  120
    x[15]     packing[8]  77
    x[15]     packing[9]  83
    x[15]     packing[10]  144
    x[15]     packing[11]  99
    x[15]     packing[12]  104
    x[15]     packing[13]  172
    x[15]     packing[14]  107
    x[15]     packing[15]  188
    x[15]     packing[17]  109
    x[15]     packing[18]  82
    x[15]     packing[19]  69
    x[15]     packing[23]  98
    x[15]     packing[24]  154
    x[15]     packing[25]  98
    x[15]     packing[26]  168
    x[15]     packing[28]  85
    x[15]     packing[29]  28
    x[15]     packing[30]  154
    x[15]     packing[33]  196
    x[15]     packing[35]  180
    x[15]     packing[36]  150
    x[15]     packing[38]  136
    x[15]     packing[39]  3
    x[15]     packing[41]  27
    x[15]     packing[42]  141
    x[15]     packing[46]  44
    x[15]     packing[47]  177
    x[15]     packing[48]  63
    x[15]     packing[49]  190
    x[16]     OBJ       144
    x[16]     packing[0]  75
    x[16]     packing[2]  111
    x[16]     packing[3]  34
    x[16]     packing[4]  97
    x[16]     packing[5]  81
    x[16]     packing[6]  189
    x[16]     packing[7]  141
    x[16]     packing[8]  179
    x[16]     packing[9]  93
    x[16]     packing[11]  117
    x[16]     packing[12]  198
    x[16]     packing[13]  148
    x[16]     packing[14]  46
    x[16]     packing[15]  52
    x[16]     packing[16]  92
    x[16]     packing[17]  145
    x[16]     packing[18]  12
    x[16]     packing[20]  132
    x[16]     packing[21]  182
    x[16]     packing[23]  160
    x[16]     packing[24]  114
    x[16]     packing[25]  15
    x[16]     packing[26]  142
    x[16]     packing[28]  183
    x[16]     packing[30]  69
    x[16]     packing[32]  173
    x[16]     packing[33]  124
    x[16]     packing[35]  147
    x[16]     packing[36]  130
    x[16]     packing[37]  102
    x[16]     packing[39]  67
    x[16]     packing[40]  1
    x[16]     packing[41]  198
    x[16]     packing[42]  110
    x[16]     packing[43]  134
    x[16]     packing[45]  152
    x[16]     packing[46]  131
    x[16]     packing[48]  111
    x[16]     packing[49]  158
    x[17]     OBJ       188
    x[17]     packing[2]  97
    x[17]     packing[3]  49
    x[17]     packing[4]  185
    x[17]     packing[5]  138
    x[17]     packing[7]  14
    x[17]     packing[8]  187
    x[17]     packing[9]  37
    x[17]     packing[10]  83
    x[17]     packing[11]  169
    x[17]     packing[12]  196
    x[17]     packing[13]  91
    x[17]     packing[14]  79
    x[17]     packing[16]  123
    x[17]     packing[17]  37
    x[17]     packing[18]  159
    x[17]     packing[19]  138
    x[17]     packing[20]  7
    x[17]     packing[21]  182
    x[17]     packing[22]  129
    x[17]     packing[24]  58
    x[17]     packing[25]  110
    x[17]     packing[26]  2
    x[17]     packing[27]  12
    x[17]     packing[28]  151
    x[17]     packing[33]  28
    x[17]     packing[35]  94
    x[17]     packing[36]  35
    x[17]     packing[37]  194
    x[17]     packing[39]  13
    x[17]     packing[40]  136
    x[17]     packing[42]  199
    x[17]     packing[43]  148
    x[17]     packing[44]  144
    x[17]     packing[45]  21
    x[17]     packing[46]  14
    x[17]     packing[49]  66
    x[17]     R51       1
    x[18]     OBJ       145
    x[18]     packing[0]  17
    x[18]     packing[2]  96
    x[18]     packing[3]  88
    x[18]     packing[4]  134
    x[18]     packing[6]  71
    x[18]     packing[8]  39
    x[18]     packing[9]  178
    x[18]     packing[10]  86
    x[18]     packing[11]  89
    x[18]     packing[12]  163
    x[18]     packing[13]  194
    x[18]     packing[14]  94
    x[18]     packing[15]  144
    x[18]     packing[17]  127
    x[18]     packing[18]  138
    x[18]     packing[20]  191
    x[18]     packing[22]  34
    x[18]     packing[23]  190
    x[18]     packing[24]  57
    x[18]     packing[25]  92
    x[18]     packing[27]  180
    x[18]     packing[28]  38
    x[18]     packing[29]  4
    x[18]     packing[30]  192
    x[18]     packing[33]  95
    x[18]     packing[34]  86
    x[18]     packing[35]  66
    x[18]     packing[36]  128
    x[18]     packing[40]  31
    x[18]     packing[41]  91
    x[18]     packing[42]  114
    x[18]     packing[43]  5
    x[18]     packing[44]  24
    x[18]     packing[47]  170
    x[18]     packing[48]  119
    x[18]     packing[49]  80
    x[19]     OBJ       128
    x[19]     packing[0]  29
    x[19]     packing[1]  156
    x[19]     packing[2]  76
    x[19]     packing[3]  98
    x[19]     packing[4]  146
    x[19]     packing[5]  153
    x[19]     packing[7]  163
    x[19]     packing[9]  168
    x[19]     packing[10]  10
    x[19]     packing[11]  128
    x[19]     packing[12]  40
    x[19]     packing[13]  121
    x[19]     packing[14]  189
    x[19]     packing[15]  70
    x[19]     packing[17]  113
    x[19]     packing[18]  70
    x[19]     packing[19]  106
    x[19]     packing[20]  93
    x[19]     packing[22]  87
    x[19]     packing[24]  196
    x[19]     packing[25]  115
    x[19]     packing[27]  123
    x[19]     packing[28]  51
    x[19]     packing[30]  160
    x[19]     packing[32]  32
    x[19]     packing[33]  198
    x[19]     packing[35]  105
    x[19]     packing[36]  117
    x[19]     packing[37]  151
    x[19]     packing[40]  92
    x[19]     packing[41]  60
    x[19]     packing[42]  162
    x[19]     packing[43]  24
    x[19]     packing[44]  181
    x[19]     packing[46]  106
    x[19]     packing[48]  178
    x[19]     packing[49]  43
    x[19]     R51       1
    x[20]     OBJ       43
    x[20]     packing[0]  60
    x[20]     packing[3]  118
    x[20]     packing[4]  183
    x[20]     packing[6]  86
    x[20]     packing[7]  54
    x[20]     packing[9]  76
    x[20]     packing[11]  20
    x[20]     packing[12]  119
    x[20]     packing[13]  171
    x[20]     packing[14]  64
    x[20]     packing[15]  59
    x[20]     packing[16]  188
    x[20]     packing[17]  87
    x[20]     packing[19]  132
    x[20]     packing[20]  154
    x[20]     packing[21]  85
    x[20]     packing[22]  97
    x[20]     packing[23]  74
    x[20]     packing[24]  199
    x[20]     packing[25]  37
    x[20]     packing[28]  104
    x[20]     packing[30]  15
    x[20]     packing[31]  159
    x[20]     packing[33]  120
    x[20]     packing[34]  194
    x[20]     packing[35]  24
    x[20]     packing[36]  161
    x[20]     packing[37]  129
    x[20]     packing[38]  140
    x[20]     packing[39]  11
    x[20]     packing[41]  29
    x[20]     packing[42]  115
    x[20]     packing[43]  101
    x[20]     packing[44]  170
    x[20]     packing[46]  183
    x[20]     packing[47]  40
    x[20]     packing[48]  90
    x[20]     packing[49]  127
    MARKER    'MARKER'                 'INTEND'
RHS
    RHS1      packing[0]  628
    RHS1      packing[1]  585
    RHS1      packing[2]  620
    RHS1      packing[3]  716
    RHS1      packing[4]  899
    RHS1      packing[5]  1002
    RHS1      packing[6]  867
    RHS1      packing[7]  694
    RHS1      packing[8]  699
    RHS1      packing[9]  775
    RHS1      packing[10]  971
    RHS1      packing[11]  737
    RHS1      packing[12]  943
    RHS1      packing[13]  830
    RHS1      packing[14]  667
    RHS1      packing[15]  848
    RHS1      packing[16]  828
    RHS1      packing[17]  872
    RHS1      packing[18]  812
    RHS1      packing[19]  872
    RHS1      packing[20]  960
    RHS1      packing[21]  732
    RHS1      packing[22]  826
    RHS1      packing[23]  765
    RHS1      packing[24]  713
    RHS1      packing[25]  699
    RHS1      packing[26]  519
    RHS1      packing[27]  882
    RHS1      packing[28]  959
    RHS1      packing[29]  537
    RHS1      packing[30]  639
    RHS1      packing[31]  575
    RHS1      packing[32]  524
    RHS1      packing[33]  951
    RHS1      packing[34]  883
    RHS1      packing[35]  1000
    RHS1      packing[36]  729
    RHS1      packing[37]  815
    RHS1      packing[38]  675
    RHS1      packing[39]  778
    RHS1      packing[40]  761
    RHS1      packing[41]  843
    RHS1      packing[42]  1134
    RHS1      packing[43]  912
    RHS1      packing[44]  874
    RHS1      packing[45]  725
    RHS1      packing[46]  581
    RHS1      packing[47]  466
    RHS1      packing[48]  804
    RHS1      packing[49]  1062
    RHS1      R51       5
BOUNDS
 BV BND1      x[1]    
 BV BND1      x[2]    
 BV BND1      x[3]    
 BV BND1      x[4]    
 BV BND1      x[5]    
 BV BND1      x[6]    
 BV BND1      x[7]    
 BV BND1      x[8]    
 BV BND1      x[9]    
 BV BND1      x[10]   
 BV BND1      x[11]   
 BV BND1      x[12]   
 BV BND1      x[13]   
 BV BND1      x[14]   
 BV BND1      x[15]   
 BV BND1      x[16]   
 BV BND1      x[17]   
 BV BND1      x[18]   
 BV BND1      x[19]   
 BV BND1      x[20]   
ENDATA
